\ This file has been generated by DOcplex
\ ENCODING=ISO-8859-1
\Problem name: random_problem.lp

Minimize
 obj: - 6 x0 + 2 x1 + 6 x2 + 3 x3 - 2 x4 - 6 x5 - 10 x6 - 2 x7 + 8 x8 + 8 x9
      + 7 x11 + 2 x12 + 7 x13 + 4 x14 + 7 x15 + 7 x16 + x17 + 9 x18 + [ 12 x0*x4
      + 16 x0*x6 + 6 x0*x9 - 6 x0*x11 - 6 x0*x16 + 16 x1*x10 + 10 x1*x13
      + 18 x1*x16 + 8 x1*x17 - 8 x1*x18 + 2 x2*x11 - 18 x2*x12 + 20 x2*x15
      + 8 x2*x16 + 14 x2*x17 + 18 x3*x6 - 6 x3*x10 + 4 x3*x11 + 10 x3*x15
      - 18 x3*x17 + 20 x4*x6 - 4 x4*x7 + 18 x4*x8 - 14 x4*x9 + 8 x5*x6
      - 10 x5*x10 + 20 x5*x12 + 16 x5*x15 + 2 x5*x16 + 4 x6*x17 - 20 x7*x8
      - 16 x7*x11 + 6 x7*x15 - 8 x7*x18 + 2 x8*x13 + 20 x8*x15 + 20 x8*x18
      - 4 x9*x11 - 4 x9*x13 - 18 x9*x18 - 10 x10*x12 + 16 x10*x14 - 2 x12*x16
      - 14 x12*x18 + 8 x13*x14 - 18 x13*x17 ]/2
Subject To
 c0: x1 + x9 - 2 x12 + 2 x16 + x17 = -2
 c1: x2 - 2 x4 + 2 x8 - x10 - x18 = 0
 c2: - 2 x1 + x2 - 2 x9 - 2 x13 - 2 x17 = 0

Bounds
 0 <= x0 <= 1
 0 <= x1 <= 1
 0 <= x2 <= 1
 0 <= x3 <= 1
 0 <= x4 <= 1
 0 <= x5 <= 1
 0 <= x6 <= 1
 0 <= x7 <= 1
 0 <= x8 <= 1
 0 <= x9 <= 1
 0 <= x10 <= 1
 0 <= x11 <= 1
 0 <= x12 <= 1
 0 <= x13 <= 1
 0 <= x14 <= 1
 0 <= x15 <= 1
 0 <= x16 <= 1
 0 <= x17 <= 1
 0 <= x18 <= 1

Binaries
 x0 x1 x2 x3 x4 x5 x6 x7 x8 x9 x10 x11 x12 x13 x14 x15 x16 x17 x18
End
